
Gurobi 8.1.1 (win64, Python) logging started 10/06/19 13:07:00

Academic license - for non-commercial use only

Gurobi 8.1.1 (win64, Python) logging started 10/06/19 13:23:37

Academic license - for non-commercial use only

Gurobi 8.1.1 (win64, Python) logging started 10/06/19 13:32:18

Academic license - for non-commercial use only

Gurobi 8.1.1 (win64, Python) logging started 10/06/19 13:36:41

Academic license - for non-commercial use only

Gurobi 8.1.1 (win64, Python) logging started 10/06/19 13:38:15

Academic license - for non-commercial use only

Gurobi 8.1.1 (win64, Python) logging started 10/06/19 13:40:10

Academic license - for non-commercial use only

Gurobi 8.1.1 (win64, Python) logging started 10/06/19 13:45:11

Academic license - for non-commercial use only

Gurobi 8.1.1 (win64, Python) logging started 10/06/19 13:49:19

Academic license - for non-commercial use only

Gurobi 8.1.1 (win64, Python) logging started 10/06/19 13:51:30

Academic license - for non-commercial use only

Gurobi 8.1.1 (win64, Python) logging started 10/06/19 13:54:33

Academic license - for non-commercial use only

Gurobi 8.1.1 (win64, Python) logging started 10/06/19 13:55:35

Academic license - for non-commercial use only

Gurobi 8.1.1 (win64, Python) logging started 10/06/19 14:00:35

Academic license - for non-commercial use only

Gurobi 8.1.1 (win64, Python) logging started 10/06/19 14:09:13

Academic license - for non-commercial use only

Gurobi 8.1.1 (win64, Python) logging started 10/06/19 14:09:42

Academic license - for non-commercial use only

Gurobi 8.1.1 (win64, Python) logging started 10/06/19 14:11:24

Academic license - for non-commercial use only

Gurobi 8.1.1 (win64, Python) logging started 10/06/19 15:49:30

Academic license - for non-commercial use only

Gurobi 8.1.1 (win64, Python) logging started 10/06/19 16:19:20

Academic license - for non-commercial use only

Gurobi 8.1.1 (win64, Python) logging started 10/06/19 16:19:33

Academic license - for non-commercial use only

Gurobi 8.1.1 (win64, Python) logging started 10/06/19 16:19:50

Academic license - for non-commercial use only

Gurobi 8.1.1 (win64, Python) logging started 10/06/19 17:47:40

Academic license - for non-commercial use only

Gurobi 8.1.1 (win64, Python) logging started 10/07/19 22:09:47

Academic license - for non-commercial use only

Gurobi 8.1.1 (win64, Python) logging started 10/07/19 22:25:20

Academic license - for non-commercial use only

Gurobi 8.1.1 (win64, Python) logging started 10/07/19 22:30:20

Academic license - for non-commercial use only

Gurobi 8.1.1 (win64, Python) logging started 10/07/19 22:30:37

Academic license - for non-commercial use only

Gurobi 8.1.1 (win64, Python) logging started 10/07/19 22:31:06

Academic license - for non-commercial use only

Gurobi 8.1.1 (win64, Python) logging started 10/07/19 22:34:28

Academic license - for non-commercial use only

Gurobi 8.1.1 (win64, Python) logging started 10/07/19 22:35:30

Academic license - for non-commercial use only

Gurobi 8.1.1 (win64, Python) logging started 10/07/19 22:36:03

Academic license - for non-commercial use only

Gurobi 8.1.1 (win64, Python) logging started 10/07/19 22:36:18

Academic license - for non-commercial use only

Gurobi 8.1.1 (win64, Python) logging started 10/07/19 22:37:33

Academic license - for non-commercial use only

Gurobi 8.1.1 (win64, Python) logging started 10/07/19 22:41:42

Academic license - for non-commercial use only

Gurobi 8.1.1 (win64, Python) logging started 10/07/19 22:49:19

Academic license - for non-commercial use only

Gurobi 8.1.1 (win64, Python) logging started 10/07/19 22:51:19

Academic license - for non-commercial use only

Gurobi 8.1.1 (win64, Python) logging started 10/07/19 22:51:57

Academic license - for non-commercial use only

Gurobi 8.1.1 (win64, Python) logging started 10/07/19 22:52:59

Academic license - for non-commercial use only
